data;


param d:= 100;
param r:=5;
param p:=0.740000;
param M:=1000;
param U:=
         1         1       -1.603642e+00
         2         1       -3.311983e-01
         3         1       -1.646022e+00
         4         1        1.104205e+00
         5         1       -7.157046e-01
         6         1       -1.028309e+00
         7         1       -1.068472e+00
         8         1        6.359909e-01
         9         1        9.072567e-01
        10         1       -1.543563e+00
        11         1       -1.126542e+00
        12         1       -1.438929e+00
        13         1        2.316688e+00
        14         1       -1.312710e+00
        15         1        8.707919e-02
        16         1       -2.426866e+00
        17         1       -3.827525e-01
        18         1       -5.691413e-01
        19         1       -1.579119e+00
        20         1       -1.861209e-01
        21         1        3.180519e-01
        22         1       -9.621358e-01
        23         1       -2.636925e-01
        24         1       -2.133217e-01
        25         1       -1.426021e+00
        26         1       -2.603349e+00
        27         1        2.425184e+00
        28         1        5.386395e-03
        29         1        9.753257e-01
        30         1       -3.474534e-01
        31         1       -3.119218e-01
        32         1       -9.587633e-01
        33         1       -1.279609e+00
        34         1       -1.338544e+00
        35         1        6.188674e-01
        36         1       -5.433323e-01
        37         1       -5.443705e-01
        38         1       -5.603498e-01
        39         1       -2.311205e-01
        40         1       -1.313269e+00
        41         1       -1.950278e+00
        42         1        1.022017e+00
        43         1       -1.123815e-01
        44         1       -4.035722e-01
        45         1        1.583593e+00
        46         1        1.094057e+00
        47         1        1.507589e+00
        48         1       -9.586762e-01
        49         1        4.733888e-01
        50         1       -3.425409e-01
        51         1       -1.183863e+00
        52         1       -5.926530e-01
        53         1       -9.137135e-01
        54         1        7.823474e-01
        55         1        2.422733e+00
        56         1        8.096398e-01
        57         1       -4.325556e-01
        58         1        5.707179e-02
        59         1        7.390632e-01
        60         1       -9.666757e-01
        61         1       -1.041062e+00
        62         1       -2.330575e+00
        63         1        2.282619e-01
        64         1       -2.090339e-01
        65         1        7.132017e-01
        66         1        5.983146e-01
        67         1       -1.473453e-01
        68         1        4.903677e-01
        69         1        4.662859e-01
        70         1        1.522983e+00
        71         1        6.298806e-02
        72         1        2.903997e-01
        73         1       -8.976831e-01
        74         1        1.393350e+00
        75         1       -1.984008e+00
        76         1        1.480714e+00
        77         1        6.766352e-01
        78         1       -1.301758e-01
        79         1        1.449917e-01
        80         1       -1.608626e-01
        81         1       -1.062519e+00
        82         1        8.353729e-01
        83         1        3.373966e-01
        84         1       -2.816428e+00
        85         1        5.353074e-03
        86         1       -1.068963e+00
        87         1       -9.137394e-01
        88         1        1.517223e-01
        89         1       -1.141516e+00
        90         1        4.151777e-01
        91         1        5.816161e-01
        92         1        8.287969e-01
        93         1       -1.631352e-01
        94         1       -4.467561e-01
        95         1       -8.160368e-01
        96         1       -5.813463e-02
        97         1        3.825463e-01
        98         1       -8.444169e-01
        99         1       -1.358186e+00
       100         1       -2.085903e+00
         1         2       -3.134490e-02
         2         2       -8.715136e-01
         3         2       -1.202035e+00
         4         2        2.924999e-02
         5         2       -5.139570e-01
         6         2        3.469368e-01
         7         2        1.239175e+00
         8         2       -2.093363e-01
         9         2        9.444469e-01
        10         2        6.020322e-01
        11         2       -3.860586e-01
        12         2       -3.253495e-02
        13         2       -8.993494e-01
        14         2       -1.421520e+00
        15         2        1.060899e+00
        16         2        9.184633e-01
        17         2        5.828215e-05
        18         2       -1.553205e-01
        19         2        1.015165e+00
        20         2       -4.856255e-01
        21         2        6.289935e-01
        22         2       -1.041640e+00
        23         2        8.005392e-01
        24         2       -3.648252e-02
        25         2       -8.029964e-01
        26         2       -8.762970e-01
        27         2        5.742481e-02
        28         2        3.887862e-02
        29         2       -1.400792e+00
        30         2       -9.880929e-01
        31         2        3.812082e-01
        32         2        3.740981e-01
        33         2       -1.838197e+00
        34         2        6.995149e-01
        35         2        4.221444e-02
        36         2        2.787979e-01
        37         2        1.521142e-01
        38         2        3.602909e-01
        39         2       -3.969777e-01
        40         2        9.671476e-01
        41         2        3.965105e-01
        42         2        9.864457e-01
        43         2        1.521792e+00
        44         2        3.552434e-01
        45         2       -9.507567e-01
        46         2       -1.588309e+00
        47         2        9.590216e-02
        48         2        1.740155e+00
        49         2       -6.828057e-01
        50         2       -9.613727e-01
        51         2        1.301154e-01
        52         2       -4.693167e-01
        53         2        6.111349e-02
        54         2       -3.362794e-01
        55         2        1.629128e+00
        56         2       -2.679507e-01
        57         2        6.880649e-01
        58         2       -1.199181e+00
        59         2       -2.878080e-01
        60         2        6.303720e-01
        61         2       -1.222086e+00
        62         2        2.598805e-01
        63         2        1.437379e-01
        64         2       -3.456651e-01
        65         2       -2.017093e+00
        66         2        1.345445e+00
        67         2       -5.074101e-01
        68         2       -3.805201e-01
        69         2        4.675469e-01
        70         2       -5.759353e-01
        71         2        2.065950e-01
        72         2        1.144370e+00
        73         2       -1.360691e+00
        74         2       -2.043538e-01
        75         2       -1.574274e-01
        76         2        1.914017e+00
        77         2        9.331571e-02
        78         2       -4.292184e-01
        79         2       -7.380022e-01
        80         2        6.362771e-01
        81         2        2.679619e-01
        82         2       -8.610627e-01
        83         2        1.042743e+00
        84         2        2.651420e-01
        85         2        3.758390e-01
        86         2        1.898910e+00
        87         2        1.750532e+00
        88         2       -9.907202e-01
        89         2       -2.685686e-01
        90         2       -1.242144e-02
        91         2        1.430285e+00
        92         2       -3.416842e+00
        93         2       -8.523353e-01
        94         2        9.965507e-01
        95         2       -1.056473e+00
        96         2        1.133278e+00
        97         2       -8.097233e-01
        98         2       -7.527805e-01
        99         2        2.064464e+00
       100         2       -3.046761e-01
         1         3        1.363324e+00
         2         3        5.855055e-01
         3         3       -1.505984e+00
         4         3       -8.679480e-01
         5         3        8.968184e-01
         6         3        1.764867e+00
         7         3       -2.923099e-01
         8         3       -9.624893e-01
         9         3        1.877892e-01
        10         3       -1.002852e+00
        11         3        8.095553e-02
        12         3       -4.760011e-01
        13         3       -4.009265e-01
        14         3        4.039830e-01
        15         3       -6.075709e-01
        16         3        1.237734e+00
        17         3        2.409464e-01
        18         3       -1.382946e+00
        19         3       -3.786830e-01
        20         3       -3.184056e-01
        21         3       -1.037522e+00
        22         3       -2.289744e+00
        23         3       -2.872548e-01
        24         3       -2.973146e-01
        25         3        2.300385e-01
        26         3       -1.205953e+00
        27         3        7.999438e-01
        28         3        8.210804e-01
        29         3        5.692979e-01
        30         3        1.156458e-01
        31         3        1.208776e+00
        32         3        2.322178e-01
        33         3       -1.109865e+00
        34         3       -2.397598e+00
        35         3       -9.871651e-01
        36         3       -1.724319e-01
        37         3        1.062816e-01
        38         3        4.067249e-01
        39         3        3.635163e-01
        40         3       -6.990780e-01
        41         3        1.076118e+00
        42         3        1.421086e-02
        43         3        3.865992e-01
        44         3        1.451562e+00
        45         3        1.537405e+00
        46         3       -8.994700e-01
        47         3       -1.887413e-01
        48         3       -1.566545e+00
        49         3       -1.697872e+00
        50         3       -1.614265e+00
        51         3        6.183235e-01
        52         3       -1.371074e+00
        53         3        9.075012e-01
        54         3        4.774875e-02
        55         3       -5.381588e-01
        56         3       -1.385395e-01
        57         3       -8.884700e-02
        58         3       -6.833785e-01
        59         3        1.475060e+00
        60         3       -3.133223e-01
        61         3        1.749257e+00
        62         3       -1.436302e-01
        63         3        5.260699e-02
        64         3       -6.758027e-01
        65         3       -1.291823e+00
        66         3        1.326414e+00
        67         3        4.397201e-01
        68         3       -1.234465e-01
        69         3        2.190525e+00
        70         3        4.208525e-01
        71         3       -8.723681e-02
        72         3        1.093465e+00
        73         3        1.625838e+00
        74         3        1.165744e+00
        75         3        3.623490e-01
        76         3       -9.971263e-01
        77         3        8.578916e-02
        78         3        1.822875e+00
        79         3        1.161414e+00
        80         3        1.143130e+00
        81         3       -1.152000e+00
        82         3       -3.292785e+00
        83         3       -1.868964e+00
        84         3       -4.346156e-01
        85         3        1.001976e+00
        86         3        5.900531e-01
        87         3       -2.259125e-01
        88         3        9.165500e-01
        89         3       -9.658106e-02
        90         3       -6.985776e-01
        91         3       -7.972614e-02
        92         3       -1.530041e-01
        93         3       -1.390977e+00
        94         3        2.548014e+00
        95         3       -7.460764e-02
        96         3        2.545325e-01
        97         3        2.184263e+00
        98         3       -7.942999e-01
        99         3       -6.710945e-02
       100         3        1.794128e-01
         1         4        3.986715e-01
         2         4       -3.437754e-01
         3         4        1.423694e-01
         4         4        2.145402e-01
         5         4       -1.523897e+00
         6         4       -3.519030e+00
         7         4        2.837831e+00
         8         4        1.456907e-01
         9         4       -3.741931e-01
        10         4       -2.136861e+00
        11         4       -2.279639e+00
        12         4        5.249967e-01
        13         4        4.545724e-01
        14         4       -4.996216e-01
        15         4        4.971668e-01
        16         4       -4.539405e-01
        17         4        7.750226e-03
        18         4        5.127028e-01
        19         4        4.707625e-02
        20         4        7.041917e-01
        21         4       -2.634368e-01
        22         4        5.555480e-01
        23         4        7.842514e-01
        24         4       -3.453034e-03
        25         4       -1.058677e-01
        26         4       -1.282853e+00
        27         4       -2.932032e-01
        28         4       -5.480411e-01
        29         4       -2.980134e-01
        30         4       -5.374935e-01
        31         4       -2.180969e+00
        32         4       -8.626948e-01
        33         4        5.248439e-01
        34         4        1.172253e+00
        35         4       -2.048883e-02
        36         4       -6.543429e-01
        37         4        6.864193e-01
        38         4        1.189727e+00
        39         4        8.112166e-01
        40         4        7.721495e-02
        41         4       -1.284584e-01
        42         4       -1.094281e+00
        43         4       -1.612622e-01
        44         4       -1.111168e+00
        45         4       -4.282385e-02
        46         4       -2.280148e-01
        47         4       -1.352466e+00
        48         4       -2.461640e+00
        49         4        1.795605e-01
        50         4       -7.930862e-01
        51         4       -7.585516e-01
        52         4        1.424816e-01
        53         4       -3.457355e-01
        54         4        1.288642e+00
        55         4        1.365671e+00
        56         4        1.331765e+00
        57         4        6.613418e-01
        58         4       -1.921158e-01
        59         4        1.928271e-01
        60         4       -1.071899e+00
        61         4       -7.483511e-01
        62         4       -1.145837e+00
        63         4        1.172549e-01
        64         4       -3.867029e-01
        65         4       -2.758255e+00
        66         4       -1.953094e-01
        67         4       -1.852239e+00
        68         4        1.795481e+00
        69         4       -6.413672e-02
        70         4        8.027473e-01
        71         4        5.481802e-01
        72         4        3.356196e-01
        73         4        1.442425e+00
        74         4       -9.731764e-02
        75         4       -2.609720e+00
        76         4       -1.580546e+00
        77         4       -3.789226e-01
        78         4        1.958228e+00
        79         4        1.352892e+00
        80         4       -5.873260e-02
        81         4       -2.772040e-01
        82         4       -3.984293e-02
        83         4        1.010645e-01
        84         4       -7.442246e-01
        85         4        2.649204e+00
        86         4        3.412319e-01
        87         4        2.440856e+00
        88         4        8.143954e-01
        89         4       -4.276397e-01
        90         4        5.812088e-01
        91         4        3.393538e-01
        92         4        1.242587e+00
        93         4        4.522129e-01
        94         4       -2.966232e-01
        95         4       -1.652807e+00
        96         4       -6.158237e-01
        97         4        4.786429e-01
        98         4        2.305673e-01
        99         4        3.996580e-01
       100         4        9.873278e-01
         1         5        9.027719e-01
         2         5       -1.292441e+00
         3         5        9.341533e-01
         4         5       -2.424275e-01
         5         5       -9.374356e-01
         6         5       -1.412293e+00
         7         5        9.635471e-01
         8         5        3.146465e-01
         9         5       -6.867342e-02
        10         5        9.667046e-02
        11         5       -2.314502e+00
        12         5        8.059858e-01
        13         5        6.653795e-01
        14         5        1.927197e+00
        15         5        1.198242e+00
        16         5        1.087206e+00
        17         5        5.783294e-01
        18         5       -1.023535e-01
        19         5       -1.426088e+00
        20         5        1.624724e+00
        21         5       -3.110419e-01
        22         5        1.022956e+00
        23         5       -1.019752e+00
        24         5       -7.969091e-01
        25         5        4.522623e-01
        26         5        8.722590e-01
        27         5        9.826725e-01
        28         5       -3.019846e-01
        29         5        6.563229e-01
        30         5       -2.052422e+00
        31         5       -7.713506e-01
        32         5       -1.283914e+00
        33         5        7.184220e-01
        34         5       -1.241350e+00
        35         5       -1.092038e+00
        36         5        2.506308e-01
        37         5        5.307946e-02
        38         5       -1.662143e+00
        39         5       -1.135083e+00
        40         5        3.327523e-01
        41         5        6.526361e-01
        42         5        1.571344e+00
        43         5        8.483382e-01
        44         5       -5.011800e-02
        45         5       -3.940870e-01
        46         5        5.428538e-01
        47         5        1.067257e-03
        48         5       -1.173770e+00
        49         5       -6.730431e-01
        50         5        1.009683e+00
        51         5        1.361552e+00
        52         5        1.739913e-01
        53         5        7.325342e-01
        54         5        1.120031e+00
        55         5       -1.025454e+00
        56         5       -7.326738e-01
        57         5        1.828628e+00
        58         5       -1.146973e+00
        59         5       -7.792839e-01
        60         5       -9.368710e-01
        61         5        2.210932e+00
        62         5        4.530761e-01
        63         5       -1.042078e+00
        64         5        6.345146e-01
        65         5        1.132838e+00
        66         5       -2.177898e-01
        67         5        7.128275e-01
        68         5        1.041514e+00
        69         5       -3.459546e-01
        70         5        1.707424e+00
        71         5       -6.211836e-01
        72         5       -1.186641e+00
        73         5        9.489910e-01
        74         5        1.521445e+00
        75         5       -7.838898e-01
        76         5       -3.823669e-01
        77         5        7.719193e-02
        78         5       -1.435021e-01
        79         5        7.370693e-01
        80         5       -6.672881e-01
        81         5       -7.282668e-01
        82         5        1.928310e+00
        83         5        5.414225e-01
        84         5        1.850798e-01
        85         5       -1.754726e+00
        86         5        2.368520e-01
        87         5        3.213004e-01
        88         5        2.882085e-01
        89         5        1.301198e-01
        90         5        9.125513e-02
        91         5        1.085057e+00
        92         5        2.214080e-01
        93         5       -1.594631e+00
        94         5       -1.338489e+00
        95         5       -2.788323e-01
        96         5       -1.501721e-01
        97         5       -8.455000e-01
        98         5       -2.939524e-01
        99         5        3.898623e-01
       100         5        2.790690e-01
;

param theta:=
    1        5.492357e-01
    2       -1.198577e+00
    3       -5.428084e-01
    4       -4.981866e-01
    5        1.865064e+00
;
param X_true:=
    1       -1.749089e-01
    2       -1.577717e+00
    3        3.049248e+00
    4        5.085754e-01
    5       -1.078769e+00
    6       -2.780804e+00
    7       -1.596532e+00
    8        1.509278e+00
    9       -7.017726e-01
   10        3.055151e-01
   11       -3.403669e+00
   12        7.221020e-01
   13        3.601032e+00
   14        4.458760e+00
   15        1.107313e+00
   16       -7.646631e-01
   17        8.475040e-01
   18        2.041520e-01
   19       -4.731994e+00
   20        3.333864e+00
   21       -4.594170e-01
   22        3.528219e+00
   23       -3.372616e+00
   24       -1.300908e+00
   25        9.071279e-01
   26        2.576934e+00
   27        2.735662e+00
   28       -6.742436e-01
   29        3.256101e+00
   30       -2.636592e+00
   31       -1.669118e+00
   32       -3.238165e+00
   33        3.267369e+00
   34       -3.169956e+00
   35       -1.145299e+00
   36        3.005328e-01
   37       -8.871193e-01
   38       -4.510758e+00
   39       -2.349721e+00
   40       -9.752033e-01
   41       -8.186639e-01
   42        2.697518e+00
   43       -3.853448e-01
   44       -6.738750e-01
   45        5.731602e-01
   46        4.296501e+00
   47        1.346139e+00
   48       -2.760936e+00
   49        5.835254e-01
   50        4.213967e+00
   51        1.813789e+00
   52        1.247888e+00
   53        3.020866e-01
   54        2.336037e+00
   55       -2.911496e+00
   56       -1.043464e+00
   57        2.097380e+00
   58       -1.608436e-01
   59       -1.537387e+00
   60       -2.315908e+00
   61        4.598254e+00
   62       -2.308656e-01
   63       -2.246596e+00
   64        2.126349e+00
   65        6.926317e+00
   66       -2.393551e+00
   67        2.634527e+00
   68        1.981978e+00
   69       -2.112758e+00
   70        4.243035e+00
   71       -1.462979e+00
   72       -4.195184e+00
   73        1.315086e+00
   74        3.373187e+00
   75       -1.317444e+00
   76       -8.543312e-01
   77        6.161328e-01
   78       -1.706036e+00
   79        1.141047e+00
   80       -2.846928e+00
   81       -1.547212e+00
   82        6.919002e+00
   83        8.979357e-01
   84       -9.630412e-01
   85       -5.626014e+00
   86       -2.703927e+00
   87       -3.089836e+00
   88        8.946919e-01
   89        3.983100e-01
   90        5.016086e-01
   91        4.570774e-01
   92        4.433891e+00
   93       -1.454937e+00
   94       -5.111132e+00
   95        1.061281e+00
   96       -1.418717e+00
   97       -1.719096e+00
   98        2.316922e-01
   99       -2.717806e+00
  100       -6.670403e-01
;
param X:=
    1       -5.194433e-01
    2       -1.577717e+00
    3       -9.594923e-01
    4        5.085754e-01
    5       -2.215078e-01
    6        4.083211e-01
    7        6.145081e-02
    8        3.997552e-01
    9       -5.491689e-01
   10        5.693296e-01
   11       -3.458574e-01
   12       -1.325385e+00
   13       -7.141294e-01
   14       -8.631609e-01
   15        1.107313e+00
   16       -1.126403e+00
   17        1.062430e+00
   18        2.041520e-01
   19       -1.627386e+00
   20        1.701993e+00
   21        1.585315e+00
   22        3.528219e+00
   23        9.410591e-01
   24        3.685635e-01
   25        2.219945e-01
   26        3.959465e-02
   27        2.735662e+00
   28       -6.742436e-01
   29        3.256101e+00
   30       -1.015954e+00
   31       -3.301024e-01
   32        8.380158e-01
   33       -7.925492e-01
   34       -3.169956e+00
   35       -2.479389e+00
   36        8.107131e-01
   37       -8.871193e-01
   38       -4.510758e+00
   39       -4.098458e-01
   40        1.052964e+00
   41       -6.608315e-01
   42       -4.780953e-01
   43        4.903903e-01
   44       -1.188264e+00
   45        5.731602e-01
   46        4.296501e+00
   47        1.346139e+00
   48       -2.760936e+00
   49       -4.325551e-01
   50       -9.850416e-02
   51       -1.019388e-01
   52        1.247888e+00
   53       -1.011619e+00
   54        2.336037e+00
   55       -1.574048e+00
   56        2.467336e+00
   57        1.141414e+00
   58        2.520031e-01
   59       -4.000904e-01
   60        5.549197e-01
   61       -8.654712e-01
   62        1.327162e+00
   63        5.765981e-01
   64        1.444120e+00
   65       -9.970002e-02
   66       -1.418460e+00
   67        2.634527e+00
   68        9.880642e-01
   69        1.392260e+00
   70        4.243035e+00
   71       -1.462979e+00
   72       -7.806648e-01
   73        2.938080e-01
   74        3.373187e+00
   75        7.213446e-01
   76       -8.543312e-01
   77        6.161328e-01
   78        7.753780e-01
   79        3.471511e-02
   80       -3.074196e-01
   81        2.002399e-01
   82       -1.687002e+00
   83       -7.566692e-01
   84        1.716458e+00
   85       -5.626014e+00
   86       -4.643742e-01
   87       -4.223902e-02
   88        1.291894e+00
   89       -5.051656e-01
   90        6.797087e-01
   91        4.570774e-01
   92        7.623054e-01
   93       -1.454937e+00
   94        7.532640e-01
   95       -1.857737e+00
   96        7.690353e-01
   97        1.436366e+00
   98        2.916229e-01
   99       -2.174120e+00
  100        2.564134e-01
;
param outliervec:=
    1    1
    2    0
    3    1
    4    0
    5    1
    6    1
    7    1
    8    1
    9    1
   10    1
   11    1
   12    1
   13    1
   14    1
   15    0
   16    1
   17    1
   18    0
   19    1
   20    1
   21    1
   22    0
   23    1
   24    1
   25    1
   26    1
   27    0
   28    0
   29    0
   30    1
   31    1
   32    1
   33    1
   34    0
   35    1
   36    1
   37    0
   38    0
   39    1
   40    1
   41    1
   42    1
   43    1
   44    1
   45    0
   46    0
   47    0
   48    0
   49    1
   50    1
   51    1
   52    0
   53    1
   54    0
   55    1
   56    1
   57    1
   58    1
   59    1
   60    1
   61    1
   62    1
   63    1
   64    1
   65    1
   66    1
   67    0
   68    1
   69    1
   70    0
   71    0
   72    1
   73    1
   74    0
   75    1
   76    0
   77    0
   78    1
   79    1
   80    1
   81    1
   82    1
   83    1
   84    1
   85    0
   86    1
   87    1
   88    1
   89    1
   90    1
   91    0
   92    1
   93    0
   94    1
   95    1
   96    1
   97    1
   98    1
   99    1
  100    1
;